NAME lp_typeC_740
OBJSENSE MAX
ROWS
 N  OBJ
 L  c0      
 G  c1      
 G  c2      
 L  c_key_upper
 G  c_key_lower
 L  _saboteur_upper_x1
 G  _saboteur_lower_x1
COLUMNS
    x0        OBJ       5.0662189155829729e-01
    x0        c0        1.9807527665972791e+00
    x0        c1        1.4962717162818668e+00
    x0        c2        1.9144645451274260e+00
    x0        c_key_upper  1.6559239799525431e+00
    x0        c_key_lower  1.6559239799525431e+00
    x1        OBJ       1.3427324182433185e+00
    x1        c0        1.5920915631606003e+00
    x1        c1        8.7939312082208509e-01
    x1        c2        5.0445536463417406e-01
    x1        c_key_upper  1.4193497340356345e+00
    x1        c_key_lower  1.4193497340356345e+00
    x1        _saboteur_upper_x1  1
    x1        _saboteur_lower_x1  0.1
    x2        OBJ       1.4674887599422330e+00
    x2        c0        1.2099815995002308e+00
    x2        c1        1.6967990346791666e+00
    x2        c2        1.7854062700741320e+00
    x2        c_key_upper  1.2731566748933161e+00
    x2        c_key_lower  1.2731566748933161e+00
    x3        OBJ       7.5254514821063112e-01
    x3        c0        1.5821033798978039e+00
    x3        c1        1.7624037483629240e+00
    x3        c2        1.3711700372937508e+00
    x3        c_key_upper  1.8204848283717108e+00
    x3        c_key_lower  1.8204848283717108e+00
    x4        OBJ       1.1729437508321223e+00
    x4        c0        1.4779384407719531e+00
    x4        c1        0.835692675355862
    x4        c2        0.758522222795629
    x4        c_key_upper  1.9264511146244865e+00
    x4        c_key_lower  1.9264511146244865e+00
RHS
    RHS1      c0        4.0229780989667184e+01
    RHS1      c1        1.1143435647164855e+01
    RHS1      c2        1.0251561644672160e+01
    RHS1      c_key_upper  4.0476831659388452e+01
    RHS1      c_key_lower  2.0238415829694226e+01
    RHS1      _saboteur_upper_x1  10.5
    RHS1      _saboteur_lower_x1  9.5
BOUNDS
 UP BND1      x0        10
 UP BND1      x1        10
 UP BND1      x2        10
 UP BND1      x3        10
 UP BND1      x4        10
ENDATA
